.Version 7.4.3 of ABINIT

 ABINIT is a project of the Universite Catholique de Louvain,
 Corning Inc. and other collaborators, see ~abinit/doc/developers/contributors.txt .
 Please read ~abinit/doc/users/acknowledgments.html for suggested
 acknowledgments of the ABINIT effort.

.Starting date : Thu  7 Nov 2013.
- ( at 11h17 )

- input  file    -> BTO_structopt.in
- output file    -> BTO_structopt.out
- root for input  files -> in_structopt
- root for output files -> out_structopt

 DATASET    1 : space group P4 m m (# 99); Bravais tP (primitive tetrag.)
   intxc =         0  ionmov =         2    iscf =         7 xclevel =         1
  lmnmax =         2   lnmax =         2   mband =        16  mffmem =         1
P  mgfft =        32   mkmem =         1 mpssoang=         3     mpw =       441
  mqgrid =      3001   natom =         5    nfft =      8192    nkpt =         6
  nloalg =         4  nspden =         1 nspinor =         1  nsppol =         1
    nsym =         8  n1xccc =      2501  ntypat =         3  occopt =         1
  Rough estimation (10% accuracy) of disk space for files :

------------- Echo of variables that govern the present computation ------------
-
- outvars: echo of selected default values
-   accesswff0 =  0 , fftalg0 =312 , wfoptalg0 =  0
-
- outvars: echo of global parameters not present in the input file
-  max_nthreads =    0
-
 -outvars: echo values of preprocessed input variables --------
        accesswff           1
            acell      7.4833154862E+00  7.4833154862E+00  7.5589045315E+00 Bohr
              amu      1.37327000E+02  4.78800000E+01  1.59994000E+01
           diemac      4.00000000E+03
             ecut      2.00000000E+01 Hartree
           fftalg         401
      fft_opt_lob           2
           iatfix        1
           ionmov           2
           iprcch           6
           jdtset        1
              kpt      1.25000000E-01  1.25000000E-01  1.25000000E-01
                       3.75000000E-01  1.25000000E-01  1.25000000E-01
                       3.75000000E-01  3.75000000E-01  1.25000000E-01
                       1.25000000E-01  1.25000000E-01  3.75000000E-01
                       3.75000000E-01  1.25000000E-01  3.75000000E-01
                       3.75000000E-01  3.75000000E-01  3.75000000E-01
         kptrlatt        4    0    0      0    4    0      0    0    4
          kptrlen      2.99332619E+01
P           mkmem           1
           natfix           1
            natom           5
            nband          16
           ndtset           1
            ngfft          32      32      32
             nkpt           6
            npfft           4
-           npkpt           6
            nstep         150
             nsym           8
            ntime          25
           ntypat           3
              occ      2.000000  2.000000  2.000000  2.000000  2.000000  2.000000
                       2.000000  2.000000  2.000000  2.000000  2.000000  2.000000
                       2.000000  2.000000  2.000000  0.000000
           ortalg          -2
        paral_kgb           1
           prteig           0
        restartxf          -1
           shiftk      5.00000000E-01  5.00000000E-01  5.00000000E-01
          spgroup          99
           symrel      1  0  0   0  1  0   0  0  1       1  0  0   0 -1  0   0  0  1
                      -1  0  0   0 -1  0   0  0  1      -1  0  0   0  1  0   0  0  1
                       0  1  0   1  0  0   0  0  1       0  1  0  -1  0  0   0  0  1
                       0 -1  0  -1  0  0   0  0  1       0 -1  0   1  0  0   0  0  1
           toldfe      1.00000000E-07 Hartree
           tolmxf      1.00000000E-05
            typat      1  2  3  3  3
         wfoptalg          14
              wtk        0.12500    0.25000    0.12500    0.12500    0.25000    0.12500
           xangst      0.0000000000E+00  0.0000000000E+00  0.0000000000E+00
                       1.9800000000E+00  1.9800000000E+00  2.0200000000E+00
                       0.0000000000E+00  1.9800000000E+00  2.0000000000E+00
                       1.9800000000E+00  0.0000000000E+00  2.0000000000E+00
                       1.9800000000E+00  1.9800000000E+00  0.0000000000E+00
            xcart      0.0000000000E+00  0.0000000000E+00  0.0000000000E+00
                       3.7416577431E+00  3.7416577431E+00  3.8172467884E+00
                       0.0000000000E+00  3.7416577431E+00  3.7794522658E+00
                       3.7416577431E+00  0.0000000000E+00  3.7794522658E+00
                       3.7416577431E+00  3.7416577431E+00  0.0000000000E+00
             xred      0.0000000000E+00  0.0000000000E+00  0.0000000000E+00
                       5.0000000000E-01  5.0000000000E-01  5.0500000000E-01
                       0.0000000000E+00  5.0000000000E-01  5.0000000000E-01
                       5.0000000000E-01  0.0000000000E+00  5.0000000000E-01
                       5.0000000000E-01  5.0000000000E-01  0.0000000000E+00
            znucl       56.00000   22.00000    8.00000

 chkinp: Checking input parameters for consistency, jdtset=   1.

== DATASET  1 ==================================================================
-   nproc =   24

 Real(R)+Recip(G) space primitive vectors, cartesian coordinates (Bohr,Bohr^-1):
 R(1)=  7.4833155  0.0000000  0.0000000  G(1)=  0.1336306  0.0000000  0.0000000
 R(2)=  0.0000000  7.4833155  0.0000000  G(2)=  0.0000000  0.1336306  0.0000000
 R(3)=  0.0000000  0.0000000  7.5589045  G(3)=  0.0000000  0.0000000  0.1322943
 Unit cell volume ucvol=  4.2329873E+02 bohr^3
 Angles (23,13,12)=  9.00000000E+01  9.00000000E+01  9.00000000E+01 degrees

 getcut: wavevector=  0.0000  0.0000  0.0000  ngfft=  32  32  32
         ecut(hartree)=     20.000   => boxcut(ratio)=   2.10286

--- Pseudopotential description ------------------------------------------------
- pspini: atom type   1  psp file is ../psps/56ba_LDA_TM.pspnc
- pspatm: opening atomic psp file    ../psps/56ba_LDA_TM.pspnc
-  Troullier-Martins psp for element  Ba        Thu Oct 27 17:45:27 EDT 1994
- 56.00000   8.00000    940714                znucl, zion, pspdat
    1    1    2    0      2001   0.00000      pspcod,pspxc,lmax,lloc,mmax,r2well
    0   3.136   6.531    0   3.3606525        l,e99.0,e99.9,nproj,rcpsp
   0.00000000   0.00000000   0.00000000   0.00000000     rms, ekb1, ekb2, epsatm
    1   3.684   8.871    1   2.4896211        l,e99.0,e99.9,nproj,rcpsp
   0.00000000   0.00000000   0.00000000   0.00000000     rms, ekb1, ekb2, epsatm
    2   4.356   5.823    1   2.7860712        l,e99.0,e99.9,nproj,rcpsp
   0.00000000   0.00000000   0.00000000   0.00000000     rms, ekb1, ekb2, epsatm
    2.29351246205421    0.45434617287240    4.78340519141650   rchrg,fchrg,qchrg
 pspatm: epsatm=  174.17887550
         --- l  ekb(1:nproj) -->
             1   -2.337834
             2   -1.872976
 pspatm: atomic psp has been read  and splines computed

- pspini: atom type   2  psp file is ../psps/22ti_LDA_TM.pspnc
- pspatm: opening atomic psp file    ../psps/22ti_LDA_TM.pspnc
-  Troullier-Martins psp for element  Ti        Thu Oct 27 17:33:40 EDT 1994
- 22.00000   4.00000    940714                znucl, zion, pspdat
    1    1    2    0      2001   0.00000      pspcod,pspxc,lmax,lloc,mmax,r2well
    0   5.166   8.509    0   2.4203472        l,e99.0,e99.9,nproj,rcpsp
   0.00000000   0.00000000   0.00000000   0.00000000     rms, ekb1, ekb2, epsatm
    1   2.285   3.944    1   2.9934301        l,e99.0,e99.9,nproj,rcpsp
   0.00000000   0.00000000   0.00000000   0.00000000     rms, ekb1, ekb2, epsatm
    2  20.947  27.069    1   1.9326638        l,e99.0,e99.9,nproj,rcpsp
   0.00000000   0.00000000   0.00000000   0.00000000     rms, ekb1, ekb2, epsatm
    2.82741504495369    0.09256629068341    1.82586447305099   rchrg,fchrg,qchrg
 pspatm: epsatm=   66.67453488
         --- l  ekb(1:nproj) -->
             1    0.915537
             2   -8.015692
 pspatm: atomic psp has been read  and splines computed

- pspini: atom type   3  psp file is ../psps/8o_LDA_TM.pspnc
- pspatm: opening atomic psp file    ../psps/8o_LDA_TM.pspnc
-  Troullier-Martins psp for element  O         Thu Oct 27 17:29:57 EDT 1994
-  8.00000   6.00000    940714                znucl, zion, pspdat
    1    1    1    1      2001   0.00000      pspcod,pspxc,lmax,lloc,mmax,r2well
    0   5.480  16.893    1   1.4482335        l,e99.0,e99.9,nproj,rcpsp
   0.00000000   0.00000000   0.00000000   0.00000000     rms, ekb1, ekb2, epsatm
    1  20.911  28.075    0   1.4482335        l,e99.0,e99.9,nproj,rcpsp
   0.00000000   0.00000000   0.00000000   0.00000000     rms, ekb1, ekb2, epsatm
    0.56990156784787    3.95561236318184    0.63894027514378   rchrg,fchrg,qchrg
 pspatm: epsatm=    1.57752239
         --- l  ekb(1:nproj) -->
             0    5.670783
 pspatm: atomic psp has been read  and splines computed

   7.36757933E+03                                ecore*ucvol(ha*bohr**3)

P newkpt: treating     16 bands with npw=     441 for ikpt=   1 by node    0
P newkpt: treating     16 bands with npw=     439 for ikpt=   2 by node    1
P newkpt: treating     16 bands with npw=     435 for ikpt=   3 by node    2
P newkpt: treating     16 bands with npw=     438 for ikpt=   4 by node    3
P newkpt: treating     16 bands with npw=     431 for ikpt=   5 by node    4
P newkpt: treating     16 bands with npw=     436 for ikpt=   6 by node    5

_setup2: Arith. and geom. avg. npw (full set) are     436.250     436.236

=== [ionmov= 2] Broyden-Fletcher-Goldfard-Shanno method (forces)

--- Iteration: ( 1/40) Internal Cycle: (1/1)

---SELF-CONSISTENT-FIELD CONVERGENCE--------------------------------------------

---OUTPUT-----------------------------------------------------------------------

 Cartesian coordinates (xcart) [bohr]
  0.00000000000000E+00  0.00000000000000E+00  0.00000000000000E+00
  3.74165774311357E+00  3.74165774311357E+00  3.81724678842900E+00
  0.00000000000000E+00  3.74165774311357E+00  3.77945226577129E+00
  3.74165774311357E+00  0.00000000000000E+00  3.77945226577129E+00
  3.74165774311357E+00  3.74165774311357E+00  0.00000000000000E+00
 Reduced coordinates (xred)
  0.00000000000000E+00  0.00000000000000E+00  0.00000000000000E+00
  5.00000000000000E-01  5.00000000000000E-01  5.05000000000000E-01
  0.00000000000000E+00  5.00000000000000E-01  5.00000000000000E-01
  5.00000000000000E-01  0.00000000000000E+00  5.00000000000000E-01
  5.00000000000000E-01  5.00000000000000E-01  0.00000000000000E+00
 Cartesian forces (fcart) [Ha/bohr]; max,rms= 1.45573E-03 5.09945E-04 (free atoms)
  0.00000000000000E+00  0.00000000000000E+00  1.82553036030492E-03
  0.00000000000000E+00  0.00000000000000E+00 -1.45572794141876E-03
  0.00000000000000E+00  0.00000000000000E+00 -5.22390241355392E-04
  0.00000000000000E+00  0.00000000000000E+00 -5.22390241355392E-04
  0.00000000000000E+00  0.00000000000000E+00  6.74978063824622E-04
 Reduced forces (fred)
  0.00000000000000E+00  0.00000000000000E+00 -1.38539583110528E-02
  0.00000000000000E+00  0.00000000000000E+00  1.09487599350080E-02
  0.00000000000000E+00  0.00000000000000E+00  3.89374936453947E-03
[...]
 ETOT  135  -71.310084408573     1.813E-06 2.143E-08 4.938E-05
 ETOT  136  -71.310084952263    -5.437E-07 9.654E-09 3.818E-04
 ETOT  137  -71.310083673508     1.279E-06 2.141E-08 1.776E-04
 ETOT  138  -71.310081878215     1.795E-06 9.480E-09 1.539E-04
 ETOT  139  -71.310085232673    -3.354E-06 2.099E-08 2.771E-05
 ETOT  140  -71.310084442509     7.902E-07 9.322E-09 4.343E-05
 ETOT  141  -71.310085295892    -8.534E-07 2.090E-08 4.170E-05
 ETOT  142  -71.310084949310     3.466E-07 9.420E-09 4.154E-05
 ETOT  143  -71.310085141686    -1.924E-07 2.055E-08 2.898E-05
 ETOT  144  -71.310085429014    -2.873E-07 9.358E-09 1.541E-05
 ETOT  145  -71.310085503286    -7.427E-08 2.022E-08 9.803E-06
 ETOT  146  -71.310085474899     2.839E-08 9.423E-09 1.435E-05

 At SCF step  146, etot is converged :
  for the second time, diff in etot=  2.839E-08 < toldfe=  1.000E-07

[...]

---OUTPUT-----------------------------------------------------------------------

 Cartesian coordinates (xcart) [bohr]
  0.00000000000000E+00  0.00000000000000E+00  0.00000000000000E+00
  3.74165774311357E+00  3.74165774311357E+00  3.78293693134786E+00
  0.00000000000000E+00  3.74165774311357E+00  3.77778277898126E+00
  3.74165774311357E+00  0.00000000000000E+00  3.77778277898126E+00
  3.74165774311357E+00  3.74165774311357E+00 -7.69017542095037E-04
 Reduced coordinates (xred)
  0.00000000000000E+00  0.00000000000000E+00  0.00000000000000E+00
  5.00000000000000E-01  5.00000000000000E-01  5.00461001400670E-01
  0.00000000000000E+00  5.00000000000000E-01  4.99779136410169E-01
  5.00000000000000E-01  0.00000000000000E+00  4.99779136410169E-01
  5.00000000000000E-01  5.00000000000000E-01 -1.01736639070649E-04
 Cartesian forces (fcart) [Ha/bohr]; max,rms= 9.45404E-02 4.22316E-02 (free atoms)
  0.00000000000000E+00  0.00000000000000E+00 -9.57317820285683E-02
  0.00000000000000E+00  0.00000000000000E+00 -9.45403741100106E-02
  0.00000000000000E+00  0.00000000000000E+00  5.52958036089284E-02
  0.00000000000000E+00  0.00000000000000E+00  5.52958036089284E-02
  0.00000000000000E+00  0.00000000000000E+00  7.96805489207222E-02
 Reduced forces (fred)
  0.00000000000000E+00  0.00000000000000E+00  6.83652993689938E-02
  0.00000000000000E+00  0.00000000000000E+00  5.93595606544924E-02
  0.00000000000000E+00  0.00000000000000E+00 -1.07323780209421E+00
  0.00000000000000E+00  0.00000000000000E+00 -1.07323780209421E+00
  0.00000000000000E+00  0.00000000000000E+00 -1.25755976393204E+00
 Total energy (etotal) [Ha]= -7.13100854748994E+01

 Difference of energy with previous step (new-old):
           Absolute (Ha)= 1.96751E-02
           Relative     = 2.75871E-04

 fconv : WARNING -
  ntime=   40 was not enough Broyd/MD steps to converge gradients:
  max grad (force/stress) = 9.4540E-02 > tolmxf= 1.0000E-05 ha/bohr (free atoms)

 ----iterations are completed or convergence reached----

 Mean square residual over all n,k,spin=   1.3131E-10; max=  9.4232E-09
   0.1250  0.1250  0.1250    1  1.70037E-09 kpt; spin; max resid(k); each band:
  3.73E-11 2.25E-13 4.56E-12 1.16E-12 1.29E-13 7.57E-12 3.33E-11 1.60E-11
  3.00E-11 9.99E-11 8.19E-11 2.75E-11 8.71E-11 3.39E-11 1.86E-11 1.70E-09
   0.3750  0.1250  0.1250    1  5.79445E-11 kpt; spin; max resid(k); each band:
  2.46E-11 1.97E-11 1.73E-12 6.95E-13 2.68E-12 6.02E-12 3.32E-12 2.54E-11
  2.67E-11 1.79E-11 1.84E-11 1.34E-11 5.79E-11 5.58E-12 4.25E-12 4.21E-13
   0.3750  0.3750  0.1250    1  5.33914E-12 kpt; spin; max resid(k); each band:
  2.31E-12 1.22E-14 1.83E-12 7.94E-14 2.32E-13 1.65E-13 1.03E-12 8.44E-13
  5.55E-13 8.25E-13 5.34E-12 1.19E-12 6.71E-13 5.33E-13 7.63E-13 1.35E-12
   0.1250  0.1250  0.3750    1  1.90852E-11 kpt; spin; max resid(k); each band:
  1.41E-12 1.01E-12 1.24E-12 1.32E-13 1.15E-12 6.84E-13 1.91E-11 1.48E-11
  1.16E-11 1.69E-11 1.22E-11 1.87E-11 1.50E-11 1.65E-11 1.47E-11 2.03E-12
   0.3750  0.1250  0.3750    1  8.06971E-11 kpt; spin; max resid(k); each band:
  7.88E-12 7.94E-12 5.46E-13 1.08E-12 5.64E-13 3.38E-13 1.01E-11 1.34E-12
  4.09E-13 1.47E-12 7.74E-13 1.14E-12 3.19E-13 5.42E-13 1.00E-11 8.07E-11
   0.3750  0.3750  0.3750    1  9.42322E-09 kpt; spin; max resid(k); each band:
  2.13E-10 2.05E-14 1.57E-12 1.66E-13 3.35E-11 3.26E-12 1.55E-11 9.86E-14
  2.26E-11 2.82E-11 2.42E-11 2.10E-11 1.56E-11 9.42E-11 1.15E-11 9.42E-09
 reduced coordinates (array xred) for    5 atoms
       0.000000000000      0.000000000000      0.000000000000
       0.500000000000      0.500000000000      0.500461001401
       0.000000000000      0.500000000000      0.499779136410
       0.500000000000      0.000000000000      0.499779136410
       0.500000000000      0.500000000000     -0.000101736639
 rms dE/dt=  5.0947E-01; max dE/dt=  6.8365E-02; dE/dt below (all hartree)
    1       0.000000000000      0.000000000000      0.068365299369
    2       0.000000000000      0.000000000000      0.059359560654
    3       0.000000000000      0.000000000000     -1.073237802094
    4       0.000000000000      0.000000000000     -1.073237802094
    5       0.000000000000      0.000000000000     -1.257559763932

 cartesian coordinates (angstrom) at end:
    1      0.00000000000000     0.00000000000000     0.00000000000000
    2      1.98000000000000     1.98000000000000     2.00184400560268
    3      0.00000000000000     1.98000000000000     1.99911654564068
    4      1.98000000000000     0.00000000000000     1.99911654564068
    5      1.98000000000000     1.98000000000000    -0.00040694655628

 cartesian forces (hartree/bohr) at end:
    1      0.00000000000000     0.00000000000000    -0.09573178202857
    2      0.00000000000000     0.00000000000000    -0.09454037411001
    3      0.00000000000000     0.00000000000000     0.05529580360893
    4      0.00000000000000     0.00000000000000     0.05529580360893
    5      0.00000000000000     0.00000000000000     0.07968054892072
 frms,max,avg= 4.2231627E-02 9.4540374E-02   0.000E+00  0.000E+00  8.669E-02 h/b

 cartesian forces (eV/Angstrom) at end:
    1      0.00000000000000     0.00000000000000    -4.92272574497731
    2      0.00000000000000     0.00000000000000    -4.86146109170152
    3      0.00000000000000     0.00000000000000     2.84342430744316
    4      0.00000000000000     0.00000000000000     2.84342430744316
    5      0.00000000000000     0.00000000000000     4.09733822179252
 frms,max,avg= 2.1716374E+00 4.8614611E+00   0.000E+00  0.000E+00  4.458E+00 e/A
 length scales=  7.483315486227  7.483315486227  7.558904531543 bohr
              =  3.960000000000  3.960000000000  4.000000000000 angstroms
 Fermi (or HOMO) energy (hartree) =  -0.25847   Average Vxc (hartree)=  -0.43205
 Eigenvalues (hartree) for nkpt=   6  k points:
 kpt#   1, nband= 16, wtk=  0.12500, kpt=  0.1250  0.1250  0.1250 (reduced coord)
  -0.90162  -0.86074  -0.85943  -0.60739  -0.60694  -0.59706  -0.37596  -0.35535
  -0.35421  -0.31956  -0.31902  -0.29780  -0.28701  -0.26561  -0.26543  -0.16138
 kpt#   2, nband= 16, wtk=  0.25000, kpt=  0.3750  0.1250  0.1250 (reduced coord)
  -0.89646  -0.86584  -0.85928  -0.60600  -0.60220  -0.59216  -0.40243  -0.37195
  -0.36699  -0.35760  -0.33743  -0.31213  -0.29560  -0.28605  -0.28513  -0.15562
 kpt#   3, nband= 16, wtk=  0.12500, kpt=  0.3750  0.3750  0.1250 (reduced coord)
  -0.88319  -0.86688  -0.86186  -0.61275  -0.61060  -0.59564  -0.41512  -0.39751
  -0.38023  -0.35767  -0.34856  -0.32686  -0.29257  -0.27878  -0.26281  -0.11783
 kpt#   4, nband= 16, wtk=  0.12500, kpt=  0.1250  0.1250  0.3750 (reduced coord)
  -0.89634  -0.86266  -0.85886  -0.60570  -0.60146  -0.59168  -0.39887  -0.36957
  -0.36716  -0.35675  -0.33455  -0.31142  -0.29316  -0.28450  -0.28325  -0.15459
 kpt#   5, nband= 16, wtk=  0.25000, kpt=  0.3750  0.1250  0.3750 (reduced coord)
  -0.88376  -0.86552  -0.86157  -0.61157  -0.60994  -0.59479  -0.41393  -0.39499
  -0.37765  -0.35765  -0.34735  -0.32795  -0.29411  -0.28148  -0.26333  -0.11924
 kpt#   6, nband= 16, wtk=  0.12500, kpt=  0.3750  0.3750  0.3750 (reduced coord)
  -0.87206  -0.86274  -0.86140  -0.62907  -0.62825  -0.61718  -0.42350  -0.38030
  -0.37744  -0.35970  -0.33899  -0.33670  -0.26911  -0.26697  -0.25847  -0.09900
 Total charge density [el/Bohr^3]
,     Maximum=    8.9206E-01  at reduced coord.    0.4688    0.5625    0.0000
,Next maximum=    8.9206E-01  at reduced coord.    0.5313    0.5625    0.0000
,     Minimum=    6.5614E-06  at reduced coord.    0.0000    0.0000    0.0000
,Next minimum=    4.3502E-04  at reduced coord.    0.5000    0.5000    0.0000
,  Integrated=    3.0000E+01

 Components of total free energy (in Hartree) :

    Kinetic energy  =  4.30373767797020E+01
    Hartree energy  =  1.40221659730051E+01
    XC energy       = -2.03117748269107E+01
    Ewald energy    = -5.94085868591758E+01
    PspCore energy  =  1.74051532122998E+01
    Loc. psp. energy= -5.54755303413960E+01
    NL   psp  energy= -1.05788894124238E+01
    >>>>>>>>> Etotal= -7.13100854748994E+01

 Other information on the energy :
    Total energy(eV)= -1.94044610894690E+03 ; Band energy (Ha)=  -1.4876922251E+01
 rms coord change=  1.1750E-03   atom, delta coord (reduced):
     1        0.000000000000      0.000000000000      0.000000000000
     2        0.000000000000      0.000000000000     -0.004538998599
     3        0.000000000000      0.000000000000     -0.000220863590
     4        0.000000000000      0.000000000000     -0.000220863590
     5        0.000000000000      0.000000000000     -0.000101736639

 Cartesian components of stress tensor (hartree/bohr^3)
  sigma(1 1)=  1.85774457E-03  sigma(3 2)=  0.00000000E+00
  sigma(2 2)=  1.85774457E-03  sigma(3 1)=  0.00000000E+00
  sigma(3 3)=  2.01098671E-03  sigma(2 1)=  0.00000000E+00

-Cartesian components of stress tensor (GPa)         [Pressure= -5.6160E+01 GPa]
- sigma(1 1)=  5.46567232E+01  sigma(3 2)=  0.00000000E+00
- sigma(2 2)=  5.46567232E+01  sigma(3 1)=  0.00000000E+00
- sigma(3 3)=  5.91652618E+01  sigma(2 1)=  0.00000000E+00

== END DATASET(S) ==============================================================

 -outvars: echo values of variables after computation  --------
        accesswff           1
            acell      7.4833154862E+00  7.4833154862E+00  7.5589045315E+00 Bohr
              amu      1.37327000E+02  4.78800000E+01  1.59994000E+01
           diemac      4.00000000E+03
             ecut      2.00000000E+01 Hartree
           etotal1    -7.1310085475E+01
            fcart1     0.0000000000E+00  0.0000000000E+00 -9.5731782029E-02
                       0.0000000000E+00  0.0000000000E+00 -9.4540374110E-02
                       0.0000000000E+00  0.0000000000E+00  5.5295803609E-02
                       0.0000000000E+00  0.0000000000E+00  5.5295803609E-02
                       0.0000000000E+00  0.0000000000E+00  7.9680548921E-02
           fftalg         401
      fft_opt_lob           2
           iatfix        1
           ionmov           2
           iprcch           6
           jdtset        1
              kpt      1.25000000E-01  1.25000000E-01  1.25000000E-01
                       3.75000000E-01  1.25000000E-01  1.25000000E-01
                       3.75000000E-01  3.75000000E-01  1.25000000E-01
                       1.25000000E-01  1.25000000E-01  3.75000000E-01
                       3.75000000E-01  1.25000000E-01  3.75000000E-01
                       3.75000000E-01  3.75000000E-01  3.75000000E-01
         kptrlatt        4    0    0      0    4    0      0    0    4
          kptrlen      2.99332619E+01
P           mkmem           1
           natfix           1
            natom           5
            nband          16
           ndtset           1
            ngfft          32      32      32
             nkpt           6
            npfft           4
-           npkpt           6
            nstep         150
             nsym           8
            ntime          25
           ntypat           3
              occ      2.000000  2.000000  2.000000  2.000000  2.000000  2.000000
                       2.000000  2.000000  2.000000  2.000000  2.000000  2.000000
                       2.000000  2.000000  2.000000  0.000000
           ortalg          -2
        paral_kgb           1
           prteig           0
        restartxf          -1
           shiftk      5.00000000E-01  5.00000000E-01  5.00000000E-01
          spgroup          99
           strten1     1.8577445731E-03  1.8577445731E-03  2.0109867133E-03
                       0.0000000000E+00  0.0000000000E+00  0.0000000000E+00
           symrel      1  0  0   0  1  0   0  0  1       1  0  0   0 -1  0   0  0  1
                      -1  0  0   0 -1  0   0  0  1      -1  0  0   0  1  0   0  0  1
                       0  1  0   1  0  0   0  0  1       0  1  0  -1  0  0   0  0  1
                       0 -1  0  -1  0  0   0  0  1       0 -1  0   1  0  0   0  0  1
           toldfe      1.00000000E-07 Hartree
           tolmxf      1.00000000E-05
            typat      1  2  3  3  3
         wfoptalg          14
              wtk        0.12500    0.25000    0.12500    0.12500    0.25000    0.12500
           xangst      0.0000000000E+00  0.0000000000E+00  0.0000000000E+00
                       1.9800000000E+00  1.9800000000E+00  2.0018440056E+00
                       0.0000000000E+00  1.9800000000E+00  1.9991165456E+00
                       1.9800000000E+00  0.0000000000E+00  1.9991165456E+00
                       1.9800000000E+00  1.9800000000E+00 -4.0694655628E-04
            xcart      0.0000000000E+00  0.0000000000E+00  0.0000000000E+00
                       3.7416577431E+00  3.7416577431E+00  3.7829369313E+00
                       0.0000000000E+00  3.7416577431E+00  3.7777827790E+00
                       3.7416577431E+00  0.0000000000E+00  3.7777827790E+00
                       3.7416577431E+00  3.7416577431E+00 -7.6901754210E-04
             xred      0.0000000000E+00  0.0000000000E+00  0.0000000000E+00
                       5.0000000000E-01  5.0000000000E-01  5.0046100140E-01
                       0.0000000000E+00  5.0000000000E-01  4.9977913641E-01
                       5.0000000000E-01  0.0000000000E+00  4.9977913641E-01
                       5.0000000000E-01  5.0000000000E-01 -1.0173663907E-04
            znucl       56.00000   22.00000    8.00000

- Timing analysis has been suppressed with timopt=0

 Suggested references for the acknowledgment of ABINIT usage.

 [1] Large scale ab initio calculations based on three levels of parallelization
 F. Bottin, S. Leroux, A. Knyazev, G. Zerah, Comput. Mat. Science 42, 329, (2008).
 Comment : in case paral_kgb is non-zero. Strong suggestion to cite this paper in your publications.

 [2] ABINIT : First-principles approach of materials and nanosystem properties.
 X. Gonze, B. Amadon, P.-M. Anglade, J.-M. Beuken, F. Bottin, P. Boulanger, F. Bruneval,
 D. Caliste, R. Caracas, M. Cote, T. Deutsch, L. Genovese, Ph. Ghosez, M. Giantomassi
 S. Goedecker, D.R. Hamann, P. Hermet, F. Jollet, G. Jomard, S. Leroux, M. Mancini, S. Mazevet,
 M.J.T. Oliveira, G. Onida, Y. Pouillon, T. Rangel, G.-M. Rignanese, D. Sangalli, R. Shaltaf,
 M. Torrent, M.J. Verstraete, G. Zerah, J.W. Zwanziger
 Computer Phys. Comm. 180, 2582-2615 (2009).
 Comment : the third generic paper describing the ABINIT project.
 Note that a version of this paper, that is not formatted for Computer Phys. Comm.
 The licence allows the authors to put it on the Web.

 [3] A brief introduction to the ABINIT software package.
 X. Gonze, G.-M. Rignanese, M. Verstraete, J.-M. Beuken, Y. Pouillon, R. Caracas, F. Jollet,
 M. Torrent, G. Zerah, M. Mikami, Ph. Ghosez, M. Veithen, J.-Y. Raty, V. Olevano, F. Bruneval,
 L. Reining, R. Godby, G. Onida, D.R. Hamann, and D.C. Allan.
 Z. Kristallogr. 220, 558-562 (2005).
 Comment : the second generic paper describing the ABINIT project. Note that this paper
 should be cited especially if you are using the GW part of ABINIT, as several authors
 of this part are not in the list of authors of the first or third paper.
 Note that it should not redistributed (Copyright by Oldenburg Wissenshaftverlag,
 the licence allows the authors to put it on the Web).

 And optionally :

 [4] First-principles computation of material properties : the ABINIT software project.
 X. Gonze, J.-M. Beuken, R. Caracas, F. Detraux, M. Fuchs, G.-M. Rignanese, L. Sindic,
 M. Verstraete, G. Zerah, F. Jollet, M. Torrent, A. Roy, M. Mikami, Ph. Ghosez, J.-Y. Raty, D.C. Allan.
 Comment : the original paper describing the ABINIT project.

 [5] Fast radix 2, 3, 4 and 5 kernels for Fast Fourier Transformations
 on computers with overlapping multiply-add instructions.
 S. Goedecker, SIAM J. on Scientific Computing 18, 1605 (1997).
-

 Calculation completed.
.Delivered    4 WARNINGs and  28 COMMENTs to log file.