.Version 7.4.3 of ABINIT

 ABINIT is a project of the Universite Catholique de Louvain,
 Corning Inc. and other collaborators, see ~abinit/doc/developers/contributors.txt .
 Please read ~abinit/doc/users/acknowledgments.html for suggested
 acknowledgments of the ABINIT effort.

.Starting date : Wed  6 Nov 2013.
- ( at 16h25 )

- input  file    -> STO_structopt.in
- output file    -> STO_structopt.out
- root for input  files -> in_structopt
- root for output files -> out_structopt

 DATASET    1 : space group P4 m m (# 99); Bravais tP (primitive tetrag.)
   intxc =         0  ionmov =         2    iscf =         7 xclevel =         1
  lmnmax =         4   lnmax =         4   mband =        13  mffmem =         1
P  mgfft =        32   mkmem =         5 mpssoang=         4     mpw =       283
  mqgrid =      3001   natom =         5    nfft =      8192    nkpt =        40
  nloalg =         4  nspden =         1 nspinor =         1  nsppol =         1
    nsym =         8  n1xccc =      2501  ntypat =         3  occopt =         1
  Rough estimation (10% accuracy) of disk space for files :

------------- Echo of variables that govern the present computation ------------
-
- outvars: echo of selected default values
-   accesswff0 =  0 , fftalg0 =312 , wfoptalg0 =  0
-
- outvars: echo of global parameters not present in the input file
-  max_nthreads =    0
-
 -outvars: echo values of preprocessed input variables --------
        accesswff           1
            acell      7.3699319183E+00  7.3699319183E+00  7.3699319183E+00 Bohr
              amu      8.76200000E+01  4.78800000E+01  1.59994000E+01
           diemac      5.00000000E+00
             ecut      1.46997302E+01 Hartree
           fftalg         401
      fft_opt_lob           2
           iatfix        1
           ionmov           2
           iprcch           6
              ixc           7
           jdtset        1
              kpt      6.25000000E-02  6.25000000E-02  6.25000000E-02
                       1.87500000E-01  6.25000000E-02  6.25000000E-02
                       3.12500000E-01  6.25000000E-02  6.25000000E-02
                       4.37500000E-01  6.25000000E-02  6.25000000E-02
                       1.87500000E-01  1.87500000E-01  6.25000000E-02
                       3.12500000E-01  1.87500000E-01  6.25000000E-02
                       4.37500000E-01  1.87500000E-01  6.25000000E-02
                       3.12500000E-01  3.12500000E-01  6.25000000E-02
                       4.37500000E-01  3.12500000E-01  6.25000000E-02
                       4.37500000E-01  4.37500000E-01  6.25000000E-02
                       6.25000000E-02  6.25000000E-02  1.87500000E-01
                       1.87500000E-01  6.25000000E-02  1.87500000E-01
                       3.12500000E-01  6.25000000E-02  1.87500000E-01
                       4.37500000E-01  6.25000000E-02  1.87500000E-01
                       1.87500000E-01  1.87500000E-01  1.87500000E-01
                       3.12500000E-01  1.87500000E-01  1.87500000E-01
                       4.37500000E-01  1.87500000E-01  1.87500000E-01
                       3.12500000E-01  3.12500000E-01  1.87500000E-01
                       4.37500000E-01  3.12500000E-01  1.87500000E-01
                       4.37500000E-01  4.37500000E-01  1.87500000E-01
                       6.25000000E-02  6.25000000E-02  3.12500000E-01
                       1.87500000E-01  6.25000000E-02  3.12500000E-01
                       3.12500000E-01  6.25000000E-02  3.12500000E-01
                       4.37500000E-01  6.25000000E-02  3.12500000E-01
                       1.87500000E-01  1.87500000E-01  3.12500000E-01
                       3.12500000E-01  1.87500000E-01  3.12500000E-01
                       4.37500000E-01  1.87500000E-01  3.12500000E-01
                       3.12500000E-01  3.12500000E-01  3.12500000E-01
                       4.37500000E-01  3.12500000E-01  3.12500000E-01
                       4.37500000E-01  4.37500000E-01  3.12500000E-01
                       6.25000000E-02  6.25000000E-02  4.37500000E-01
                       1.87500000E-01  6.25000000E-02  4.37500000E-01
                       3.12500000E-01  6.25000000E-02  4.37500000E-01
                       4.37500000E-01  6.25000000E-02  4.37500000E-01
                       1.87500000E-01  1.87500000E-01  4.37500000E-01
                       3.12500000E-01  1.87500000E-01  4.37500000E-01
                       4.37500000E-01  1.87500000E-01  4.37500000E-01
                       3.12500000E-01  3.12500000E-01  4.37500000E-01
                       4.37500000E-01  3.12500000E-01  4.37500000E-01
                       4.37500000E-01  4.37500000E-01  4.37500000E-01
         kptrlatt        8    0    0      0    8    0      0    0    8
          kptrlen      5.89594553E+01
P           mkmem           5
           natfix           1
            natom           5
            nband          13
           ndtset           1
            ngfft          32      32      32
             nkpt          40
            npfft           4
-           npkpt           8
            nstep         150
             nsym           8
            ntime          20
           ntypat           3
              occ      2.000000  2.000000  2.000000  2.000000  2.000000  2.000000
                       2.000000  2.000000  2.000000  2.000000  2.000000  2.000000
                       0.000000
           ortalg          -2
        paral_kgb           1
           prteig           0
        restartxf          -1
           shiftk      5.00000000E-01  5.00000000E-01  5.00000000E-01
          spgroup          99
           symrel      1  0  0   0  1  0   0  0  1       1  0  0   0 -1  0   0  0  1
                      -1  0  0   0 -1  0   0  0  1      -1  0  0   0  1  0   0  0  1
                       0  1  0   1  0  0   0  0  1       0  1  0  -1  0  0   0  0  1
                       0 -1  0  -1  0  0   0  0  1       0 -1  0   1  0  0   0  0  1
           toldfe      1.00000000E-06 Hartree
           tolmxf      1.00000000E-05
            typat      1  2  3  3  3
         wfoptalg          14
              wtk        0.01563    0.03125    0.03125    0.03125    0.01563    0.03125
                         0.03125    0.01563    0.03125    0.01563    0.01563    0.03125
                         0.03125    0.03125    0.01563    0.03125    0.03125    0.01563
                         0.03125    0.01563    0.01563    0.03125    0.03125    0.03125
                         0.01563    0.03125    0.03125    0.01563    0.03125    0.01563
                         0.01563    0.03125    0.03125    0.03125    0.01563    0.03125
                         0.03125    0.01563    0.03125    0.01563
           xangst      0.0000000000E+00  0.0000000000E+00  0.0000000000E+00
                       1.9500000000E+00  1.9500000000E+00  1.9695000000E+00
                       0.0000000000E+00  1.9500000000E+00  1.9500000000E+00
                       1.9500000000E+00  0.0000000000E+00  1.9500000000E+00
                       1.9500000000E+00  1.9500000000E+00  0.0000000000E+00
            xcart      0.0000000000E+00  0.0000000000E+00  0.0000000000E+00
                       3.6849659591E+00  3.6849659591E+00  3.7218156187E+00
                       0.0000000000E+00  3.6849659591E+00  3.6849659591E+00
                       3.6849659591E+00  0.0000000000E+00  3.6849659591E+00
                       3.6849659591E+00  3.6849659591E+00  0.0000000000E+00
             xred      0.0000000000E+00  0.0000000000E+00  0.0000000000E+00
                       5.0000000000E-01  5.0000000000E-01  5.0500000000E-01
                       0.0000000000E+00  5.0000000000E-01  5.0000000000E-01
                       5.0000000000E-01  0.0000000000E+00  5.0000000000E-01
                       5.0000000000E-01  5.0000000000E-01  0.0000000000E+00
            znucl       38.00000   22.00000    8.00000

 chkinp: Checking input parameters for consistency, jdtset=   1.

== DATASET  1 ==================================================================
-   nproc =   32

 Real(R)+Recip(G) space primitive vectors, cartesian coordinates (Bohr,Bohr^-1):
 R(1)=  7.3699319  0.0000000  0.0000000  G(1)=  0.1356865  0.0000000  0.0000000
 R(2)=  0.0000000  7.3699319  0.0000000  G(2)=  0.0000000  0.1356865  0.0000000
 R(3)=  0.0000000  0.0000000  7.3699319  G(3)=  0.0000000  0.0000000  0.1356865
 Unit cell volume ucvol=  4.0030446E+02 bohr^3
 Angles (23,13,12)=  9.00000000E+01  9.00000000E+01  9.00000000E+01 degrees

 getcut: wavevector=  0.0000  0.0000  0.0000  ngfft=  32  32  32
         ecut(hartree)=     14.700   => boxcut(ratio)=   2.51575

 getcut : COMMENT -
  Note that boxcut > 2.2 ; recall that boxcut=Gcut(box)/Gcut(sphere) = 2
  is sufficient for exact treatment of convolution.
  Such a large boxcut is a waste : you could raise ecut
  e.g. ecut=   23.258557 Hartrees makes boxcut=2

--- Pseudopotential description ------------------------------------------------
- pspini: atom type   1  psp file is ../psps/38sr_LDA_FHI.fhi
- pspatm: opening atomic psp file    ../psps/38sr_LDA_FHI.fhi
- strontium, fhi98PP : Trouiller-Martins-type, LDA Ceperley/Alder Perdew/Wang (1992), l= 0 local
- 38.00000   2.00000     11001                znucl, zion, pspdat
    6    7    3    0       537   0.00000      pspcod,pspxc,lmax,lloc,mmax,r2well
    7.56200000000000    1.00000000000000    0.00000000000000   rchrg,fchrg,qchrg
  1.024700          amesh (Hamman grid)
 pspatm: epsatm=   93.08613442
         --- l  ekb(1:nproj) -->
             1   23.261112
             2   -2.794329
             3   -1.070229
 pspatm: atomic psp has been read  and splines computed

- pspini: atom type   2  psp file is ../psps/22ti_LDA_FHI.fhi
- pspatm: opening atomic psp file    ../psps/22ti_LDA_FHI.fhi
- titanium, fhi98PP : Trouiller-Martins-type, LDA Ceperley/Alder Perdew/Wang (1992), l= 1 local
- 22.00000   4.00000     21003                znucl, zion, pspdat
    6    7    3    1       515   0.00000      pspcod,pspxc,lmax,lloc,mmax,r2well
    0.00000000000000    0.00000000000000    0.00000000000000   rchrg,fchrg,qchrg
  1.024700          amesh (Hamman grid)
 pspatm: epsatm=   58.87618897
         --- l  ekb(1:nproj) -->
             0   -0.518582
             2   -5.296591
             3   -1.216009
 pspatm: atomic psp has been read  and splines computed

- pspini: atom type   3  psp file is ../psps/8o_LDA_FHI.fhi
- pspatm: opening atomic psp file    ../psps/8o_LDA_FHI.fhi
- oxygen, fhi98PP : Trouiller-Martins-type, LDA Ceperley/Alder Perdew/Wang (1992), l= 2 local
-  8.00000   6.00000     21003                znucl, zion, pspdat
    6    7    3    2       473   0.00000      pspcod,pspxc,lmax,lloc,mmax,r2well
    0.00000000000000    0.00000000000000    0.00000000000000   rchrg,fchrg,qchrg
  1.024700          amesh (Hamman grid)
 pspatm: epsatm=    3.67996594
         --- l  ekb(1:nproj) -->
             0    2.914750
             1   -2.952330
             3   -3.448613
 pspatm: atomic psp has been read  and splines computed

   3.91205331E+03                                ecore*ucvol(ha*bohr**3)

[...]
  -0.28780  -0.23874  -0.23856  -0.22334  -0.07016
 kpt#  17, nband= 13, wtk=  0.03125, kpt=  0.4375  0.1875  0.1875 (reduced coord)
  -0.89307  -0.87729  -0.87247  -0.36500  -0.34043  -0.32893  -0.32599  -0.32109
  -0.28486  -0.24335  -0.24093  -0.22520  -0.06813
 kpt#  18, nband= 13, wtk=  0.01563, kpt=  0.3125  0.3125  0.1875 (reduced coord)
  -0.89309  -0.87489  -0.87376  -0.35923  -0.34383  -0.33756  -0.32869  -0.31380
  -0.30343  -0.23826  -0.23391  -0.21372  -0.05081
 kpt#  19, nband= 13, wtk=  0.03125, kpt=  0.4375  0.3125  0.1875 (reduced coord)
  -0.88864  -0.87675  -0.87402  -0.36560  -0.35341  -0.34558  -0.32834  -0.32262
  -0.30278  -0.23733  -0.23457  -0.20722  -0.04410
 kpt#  20, nband= 13, wtk=  0.01563, kpt=  0.4375  0.4375  0.1875 (reduced coord)
  -0.88448  -0.87649  -0.87602  -0.36894  -0.36233  -0.35579  -0.32702  -0.32395
  -0.30961  -0.23507  -0.23257  -0.19530  -0.02521
 kpt#  21, nband= 13, wtk=  0.01563, kpt=  0.0625  0.0625  0.3125 (reduced coord)
  -0.90390  -0.87498  -0.87081  -0.35036  -0.32305  -0.32138  -0.29366  -0.28391
  -0.26512  -0.25012  -0.23484  -0.22948  -0.10307
 kpt#  22, nband= 13, wtk=  0.03125, kpt=  0.1875  0.0625  0.3125 (reduced coord)
  -0.90085  -0.87472  -0.87184  -0.35271  -0.33299  -0.32112  -0.31727  -0.28783
  -0.26755  -0.25056  -0.24055  -0.22938  -0.08267
 kpt#  23, nband= 13, wtk=  0.03125, kpt=  0.3125  0.0625  0.3125 (reduced coord)
  -0.89575  -0.87484  -0.87335  -0.35732  -0.34218  -0.34053  -0.31852  -0.29304
  -0.27593  -0.25368  -0.25291  -0.21328  -0.05783
 kpt#  24, nband= 13, wtk=  0.03125, kpt=  0.4375  0.0625  0.3125 (reduced coord)
  -0.89108  -0.87689  -0.87368  -0.36476  -0.35669  -0.34688  -0.31371  -0.30318
  -0.27497  -0.26234  -0.25475  -0.20856  -0.05469
 kpt#  25, nband= 13, wtk=  0.01563, kpt=  0.1875  0.1875  0.3125 (reduced coord)
  -0.89793  -0.87466  -0.87248  -0.35476  -0.33529  -0.32602  -0.31594  -0.30969
  -0.28780  -0.23874  -0.23856  -0.22334  -0.07016
 kpt#  26, nband= 13, wtk=  0.03125, kpt=  0.3125  0.1875  0.3125 (reduced coord)
  -0.89310  -0.87491  -0.87377  -0.35923  -0.34383  -0.33756  -0.32870  -0.31381
  -0.30343  -0.23826  -0.23392  -0.21373  -0.05080
 kpt#  27, nband= 13, wtk=  0.03125, kpt=  0.4375  0.1875  0.3125 (reduced coord)
  -0.88865  -0.87676  -0.87403  -0.36561  -0.35342  -0.34559  -0.32835  -0.32263
  -0.30278  -0.23734  -0.23458  -0.20723  -0.04410
 kpt#  28, nband= 13, wtk=  0.01563, kpt=  0.3125  0.3125  0.3125 (reduced coord)
  -0.88879  -0.87492  -0.87492  -0.36068  -0.34166  -0.34166  -0.33491  -0.33025
  -0.33025  -0.22254  -0.22254  -0.20724  -0.03206
 kpt#  29, nband= 13, wtk=  0.03125, kpt=  0.4375  0.3125  0.3125 (reduced coord)
  -0.88482  -0.87665  -0.87489  -0.36626  -0.35083  -0.34719  -0.34163  -0.33976
  -0.32824  -0.22040  -0.21508  -0.20276  -0.02900
 kpt#  30, nband= 13, wtk=  0.01563, kpt=  0.4375  0.4375  0.3125 (reduced coord)
  -0.88124  -0.87669  -0.87624  -0.37100  -0.35503  -0.35503  -0.34332  -0.34110
  -0.33797  -0.21078  -0.20989  -0.19466  -0.01444
 kpt#  31, nband= 13, wtk=  0.01563, kpt=  0.0625  0.0625  0.4375 (reduced coord)
  -0.89852  -0.87817  -0.87084  -0.36294  -0.31944  -0.31860  -0.31001  -0.29695
  -0.27472  -0.25937  -0.23714  -0.23337  -0.10064
 kpt#  32, nband= 13, wtk=  0.03125, kpt=  0.1875  0.0625  0.4375 (reduced coord)
  -0.89579  -0.87767  -0.87174  -0.36453  -0.33792  -0.32699  -0.31690  -0.30125
  -0.27007  -0.25812  -0.24542  -0.23230  -0.08078
 kpt#  33, nband= 13, wtk=  0.03125, kpt=  0.3125  0.0625  0.4375 (reduced coord)
  -0.89110  -0.87690  -0.87370  -0.36476  -0.35670  -0.34689  -0.31372  -0.30319
  -0.27498  -0.26235  -0.25476  -0.20858  -0.05469
 kpt#  34, nband= 13, wtk=  0.03125, kpt=  0.4375  0.0625  0.4375 (reduced coord)
  -0.88675  -0.87647  -0.87599  -0.36836  -0.36676  -0.35564  -0.30941  -0.30579
  -0.28287  -0.26022  -0.25794  -0.19568  -0.03371
 kpt#  35, nband= 13, wtk=  0.01563, kpt=  0.1875  0.1875  0.4375 (reduced coord)
  -0.89309  -0.87731  -0.87249  -0.36501  -0.34044  -0.32894  -0.32601  -0.32110
  -0.28487  -0.24336  -0.24095  -0.22522  -0.06813
 kpt#  36, nband= 13, wtk=  0.03125, kpt=  0.3125  0.1875  0.4375 (reduced coord)
  -0.88866  -0.87677  -0.87405  -0.36561  -0.35342  -0.34559  -0.32836  -0.32264
  -0.30279  -0.23735  -0.23459  -0.20724  -0.04410
 kpt#  37, nband= 13, wtk=  0.03125, kpt=  0.4375  0.1875  0.4375 (reduced coord)
  -0.88451  -0.87651  -0.87604  -0.36895  -0.36234  -0.35580  -0.32703  -0.32396
  -0.30962  -0.23509  -0.23259  -0.19533  -0.02514
 kpt#  38, nband= 13, wtk=  0.01563, kpt=  0.3125  0.3125  0.4375 (reduced coord)
  -0.88484  -0.87666  -0.87491  -0.36627  -0.35084  -0.34719  -0.34164  -0.33976
  -0.32825  -0.22041  -0.21510  -0.20277  -0.02899
 kpt#  39, nband= 13, wtk=  0.03125, kpt=  0.4375  0.3125  0.4375 (reduced coord)
  -0.88125  -0.87671  -0.87626  -0.37101  -0.35506  -0.35501  -0.34333  -0.34111
  -0.33797  -0.21079  -0.20990  -0.19467  -0.01444
 kpt#  40, nband= 13, wtk=  0.01563, kpt=  0.4375  0.4375  0.4375 (reduced coord)
  -0.87853  -0.87679  -0.87679  -0.37474  -0.35646  -0.35645  -0.35113  -0.34827
  -0.34827  -0.19795  -0.19795  -0.19421  -0.00432
 Total charge density [el/Bohr^3]
,     Maximum=    7.6459E-01  at reduced coord.    0.4688    0.5313    0.1875
,Next maximum=    7.6459E-01  at reduced coord.    0.5313    0.5313    0.1875
,     Minimum=    1.7175E-05  at reduced coord.    0.0000    0.0000    0.0000
,Next minimum=    6.7398E-05  at reduced coord.    0.0000    0.0000    0.2188
,  Integrated=    2.4000E+01

 Components of total free energy (in Hartree) :

    Kinetic energy  =  3.48307957450060E+01
    Hartree energy  =  1.64209306198220E+01
    XC energy       = -1.25496537191924E+01
    Ewald energy    = -3.78283840451043E+01
    PspCore energy  =  9.77269480650150E+00
    Loc. psp. energy= -5.75016271805747E+01
    NL   psp  energy= -5.22759422618007E+00
    >>>>>>>>> Etotal= -5.20828379997218E+01

 Other information on the energy :
    Total energy(eV)= -1.41724609732863E+03 ; Band energy (Ha)=  -1.0569121685E+01
 rms coord change=  1.1866E-03   atom, delta coord (reduced):
     1        0.000000000000      0.000000000000      0.000000000000
     2        0.000000000000      0.000000000000     -0.004217702131
     3        0.000000000000      0.000000000000      0.001164500383
     4        0.000000000000      0.000000000000      0.001164500383
     5        0.000000000000      0.000000000000      0.000787097580

 Cartesian components of stress tensor (hartree/bohr^3)
  sigma(1 1)=  5.97680608E-03  sigma(3 2)=  0.00000000E+00
  sigma(2 2)=  5.97680608E-03  sigma(3 1)=  0.00000000E+00
  sigma(3 3)=  5.97674702E-03  sigma(2 1)=  0.00000000E+00

-Cartesian components of stress tensor (GPa)         [Pressure= -1.7584E+02 GPa]
- sigma(1 1)=  1.75843676E+02  sigma(3 2)=  0.00000000E+00
- sigma(2 2)=  1.75843676E+02  sigma(3 1)=  0.00000000E+00
- sigma(3 3)=  1.75841939E+02  sigma(2 1)=  0.00000000E+00

== END DATASET(S) ==============================================================

 -outvars: echo values of variables after computation  --------
        accesswff           1
            acell      7.3699319183E+00  7.3699319183E+00  7.3699319183E+00 Bohr
              amu      8.76200000E+01  4.78800000E+01  1.59994000E+01
           diemac      5.00000000E+00
             ecut      1.46997302E+01 Hartree
           etotal1    -5.2082838000E+01
            fcart1     0.0000000000E+00  0.0000000000E+00  1.1504165955E-03
                       0.0000000000E+00  0.0000000000E+00  6.6554133589E-04
                       0.0000000000E+00  0.0000000000E+00 -1.0539172376E-03
                       0.0000000000E+00  0.0000000000E+00 -1.0539172376E-03
                       0.0000000000E+00  0.0000000000E+00  2.9187654378E-04
           fftalg         401
      fft_opt_lob           2
           iatfix        1
           ionmov           2
           iprcch           6
              ixc           7
           jdtset        1
              kpt      6.25000000E-02  6.25000000E-02  6.25000000E-02
                       1.87500000E-01  6.25000000E-02  6.25000000E-02
                       3.12500000E-01  6.25000000E-02  6.25000000E-02
                       4.37500000E-01  6.25000000E-02  6.25000000E-02
                       1.87500000E-01  1.87500000E-01  6.25000000E-02
                       3.12500000E-01  1.87500000E-01  6.25000000E-02
                       4.37500000E-01  1.87500000E-01  6.25000000E-02
                       3.12500000E-01  3.12500000E-01  6.25000000E-02
                       4.37500000E-01  3.12500000E-01  6.25000000E-02
                       4.37500000E-01  4.37500000E-01  6.25000000E-02
                       6.25000000E-02  6.25000000E-02  1.87500000E-01
                       1.87500000E-01  6.25000000E-02  1.87500000E-01
                       3.12500000E-01  6.25000000E-02  1.87500000E-01
                       4.37500000E-01  6.25000000E-02  1.87500000E-01
                       1.87500000E-01  1.87500000E-01  1.87500000E-01
                       3.12500000E-01  1.87500000E-01  1.87500000E-01
                       4.37500000E-01  1.87500000E-01  1.87500000E-01
                       3.12500000E-01  3.12500000E-01  1.87500000E-01
                       4.37500000E-01  3.12500000E-01  1.87500000E-01
                       4.37500000E-01  4.37500000E-01  1.87500000E-01
                       6.25000000E-02  6.25000000E-02  3.12500000E-01
                       1.87500000E-01  6.25000000E-02  3.12500000E-01
                       3.12500000E-01  6.25000000E-02  3.12500000E-01
                       4.37500000E-01  6.25000000E-02  3.12500000E-01
                       1.87500000E-01  1.87500000E-01  3.12500000E-01
                       3.12500000E-01  1.87500000E-01  3.12500000E-01
                       4.37500000E-01  1.87500000E-01  3.12500000E-01
                       3.12500000E-01  3.12500000E-01  3.12500000E-01
                       4.37500000E-01  3.12500000E-01  3.12500000E-01
                       4.37500000E-01  4.37500000E-01  3.12500000E-01
                       6.25000000E-02  6.25000000E-02  4.37500000E-01
                       1.87500000E-01  6.25000000E-02  4.37500000E-01
                       3.12500000E-01  6.25000000E-02  4.37500000E-01
                       4.37500000E-01  6.25000000E-02  4.37500000E-01
                       1.87500000E-01  1.87500000E-01  4.37500000E-01
                       3.12500000E-01  1.87500000E-01  4.37500000E-01
                       4.37500000E-01  1.87500000E-01  4.37500000E-01
                       3.12500000E-01  3.12500000E-01  4.37500000E-01
                       4.37500000E-01  3.12500000E-01  4.37500000E-01
                       4.37500000E-01  4.37500000E-01  4.37500000E-01
         kptrlatt        8    0    0      0    8    0      0    0    8
          kptrlen      5.89594553E+01
P           mkmem           5
           natfix           1
            natom           5
            nband          13
           ndtset           1
            ngfft          32      32      32
             nkpt          40
            npfft           4
-           npkpt           8
            nstep         150
             nsym           8
            ntime          20
           ntypat           3
              occ      2.000000  2.000000  2.000000  2.000000  2.000000  2.000000
                       2.000000  2.000000  2.000000  2.000000  2.000000  2.000000
                       0.000000
           ortalg          -2
        paral_kgb           1
           prteig           0
        restartxf          -1
           shiftk      5.00000000E-01  5.00000000E-01  5.00000000E-01
          spgroup          99
           strten1     5.9768060814E-03  5.9768060814E-03  5.9767470200E-03
                       0.0000000000E+00  0.0000000000E+00  0.0000000000E+00
           symrel      1  0  0   0  1  0   0  0  1       1  0  0   0 -1  0   0  0  1
                      -1  0  0   0 -1  0   0  0  1      -1  0  0   0  1  0   0  0  1
                       0  1  0   1  0  0   0  0  1       0  1  0  -1  0  0   0  0  1
                       0 -1  0  -1  0  0   0  0  1       0 -1  0   1  0  0   0  0  1
           toldfe      1.00000000E-06 Hartree
           tolmxf      1.00000000E-05
            typat      1  2  3  3  3
         wfoptalg          14
              wtk        0.01563    0.03125    0.03125    0.03125    0.01563    0.03125
                         0.03125    0.01563    0.03125    0.01563    0.01563    0.03125
                         0.03125    0.03125    0.01563    0.03125    0.03125    0.01563
                         0.03125    0.01563    0.01563    0.03125    0.03125    0.03125
                         0.01563    0.03125    0.03125    0.01563    0.03125    0.01563
                         0.01563    0.03125    0.03125    0.03125    0.01563    0.03125
                         0.03125    0.01563    0.03125    0.01563
           xangst      0.0000000000E+00  0.0000000000E+00  0.0000000000E+00
                       1.9500000000E+00  1.9500000000E+00  1.9530509617E+00
                       0.0000000000E+00  1.9500000000E+00  1.9545415515E+00
                       1.9500000000E+00  0.0000000000E+00  1.9545415515E+00
                       1.9500000000E+00  1.9500000000E+00  3.0696805621E-03
            xcart      0.0000000000E+00  0.0000000000E+00  0.0000000000E+00
                       3.6849659591E+00  3.6849659591E+00  3.6907314412E+00
                       0.0000000000E+00  3.6849659591E+00  3.6935482477E+00
                       3.6849659591E+00  0.0000000000E+00  3.6935482477E+00
                       3.6849659591E+00  3.6849659591E+00  5.8008555778E-03
             xred      0.0000000000E+00  0.0000000000E+00  0.0000000000E+00
                       5.0000000000E-01  5.0000000000E-01  5.0078229787E-01
                       0.0000000000E+00  5.0000000000E-01  5.0116450038E-01
                       5.0000000000E-01  0.0000000000E+00  5.0116450038E-01
                       5.0000000000E-01  5.0000000000E-01  7.8709758002E-04
            znucl       38.00000   22.00000    8.00000

- Timing analysis has been suppressed with timopt=0

 Suggested references for the acknowledgment of ABINIT usage.

 [1] Large scale ab initio calculations based on three levels of parallelization
 F. Bottin, S. Leroux, A. Knyazev, G. Zerah, Comput. Mat. Science 42, 329, (2008).
 Comment : in case paral_kgb is non-zero. Strong suggestion to cite this paper in your publications.

 [2] Ab initio pseudopotentials for electronic structure calculations of poly-atomic systems,
 using density-functional theory.
 M. Fuchs, M. Scheffler, Comput. Phys. Commun. 119, 67 (1999).
 Comment : Some pseudopotential generated using the FHI code were used.

 [3] ABINIT : First-principles approach of materials and nanosystem properties.
 X. Gonze, B. Amadon, P.-M. Anglade, J.-M. Beuken, F. Bottin, P. Boulanger, F. Bruneval,
 D. Caliste, R. Caracas, M. Cote, T. Deutsch, L. Genovese, Ph. Ghosez, M. Giantomassi
 S. Goedecker, D.R. Hamann, P. Hermet, F. Jollet, G. Jomard, S. Leroux, M. Mancini, S. Mazevet,
 M.J.T. Oliveira, G. Onida, Y. Pouillon, T. Rangel, G.-M. Rignanese, D. Sangalli, R. Shaltaf,
 M. Torrent, M.J. Verstraete, G. Zerah, J.W. Zwanziger
 Computer Phys. Comm. 180, 2582-2615 (2009).
 Comment : the third generic paper describing the ABINIT project.
 Note that a version of this paper, that is not formatted for Computer Phys. Comm.
 The licence allows the authors to put it on the Web.

 [4] A brief introduction to the ABINIT software package.
 X. Gonze, G.-M. Rignanese, M. Verstraete, J.-M. Beuken, Y. Pouillon, R. Caracas, F. Jollet,
 M. Torrent, G. Zerah, M. Mikami, Ph. Ghosez, M. Veithen, J.-Y. Raty, V. Olevano, F. Bruneval,
 L. Reining, R. Godby, G. Onida, D.R. Hamann, and D.C. Allan.
 Z. Kristallogr. 220, 558-562 (2005).
 Comment : the second generic paper describing the ABINIT project. Note that this paper
 should be cited especially if you are using the GW part of ABINIT, as several authors
 of this part are not in the list of authors of the first or third paper.
 Note that it should not redistributed (Copyright by Oldenburg Wissenshaftverlag,
 the licence allows the authors to put it on the Web).

 And optionally :

 [5] First-principles computation of material properties : the ABINIT software project.
 X. Gonze, J.-M. Beuken, R. Caracas, F. Detraux, M. Fuchs, G.-M. Rignanese, L. Sindic,
 M. Verstraete, G. Zerah, F. Jollet, M. Torrent, A. Roy, M. Mikami, Ph. Ghosez, J.-Y. Raty, D.C. Allan.
 Comment : the original paper describing the ABINIT project.
-

 Calculation completed.
.Delivered    2 WARNINGs and  45 COMMENTs to log file.