.Version 7.4.3 of ABINIT

 ABINIT is a project of the Universite Catholique de Louvain,
 Corning Inc. and other collaborators, see ~abinit/doc/developers/contributors.txt .
 Please read ~abinit/doc/users/acknowledgments.html for suggested
 acknowledgments of the ABINIT effort.

.Starting date : Thu  7 Nov 2013.
- ( at 11h18 )

- input  file    -> STO_structopt.in
- output file    -> STO_structopt.out
- root for input  files -> in_structopt
- root for output files -> out_structopt

 DATASET    1 : space group P4 m m (# 99); Bravais tP (primitive tetrag.)
   intxc =         0  ionmov =         2    iscf =         7 xclevel =         1
  lmnmax =         4   lnmax =         4   mband =        13  mffmem =         1
P  mgfft =        32   mkmem =         5 mpssoang=         4     mpw =       283
  mqgrid =      3001   natom =         5    nfft =      8192    nkpt =        40
  nloalg =         4  nspden =         1 nspinor =         1  nsppol =         1
    nsym =         8  n1xccc =      2501  ntypat =         3  occopt =         1
  Rough estimation (10% accuracy) of disk space for files :

------------- Echo of variables that govern the present computation ------------
-
- outvars: echo of selected default values
-   accesswff0 =  0 , fftalg0 =312 , wfoptalg0 =  0
-
- outvars: echo of global parameters not present in the input file
-  max_nthreads =    0
-
 -outvars: echo values of preprocessed input variables --------
        accesswff           1
            acell      7.3699319183E+00  7.3699319183E+00  7.3699319183E+00 Bohr
              amu      8.76200000E+01  4.78800000E+01  1.59994000E+01
           diemac      5.00000000E+00
             ecut      1.46997302E+01 Hartree
           fftalg         401
      fft_opt_lob           2
           iatfix        1
           ionmov           2
           iprcch           6
              ixc           7
           jdtset        1
              kpt      6.25000000E-02  6.25000000E-02  6.25000000E-02
                       1.87500000E-01  6.25000000E-02  6.25000000E-02
                       3.12500000E-01  6.25000000E-02  6.25000000E-02
                       4.37500000E-01  6.25000000E-02  6.25000000E-02
                       1.87500000E-01  1.87500000E-01  6.25000000E-02
                       3.12500000E-01  1.87500000E-01  6.25000000E-02
                       4.37500000E-01  1.87500000E-01  6.25000000E-02
                       3.12500000E-01  3.12500000E-01  6.25000000E-02
                       4.37500000E-01  3.12500000E-01  6.25000000E-02
                       4.37500000E-01  4.37500000E-01  6.25000000E-02
                       6.25000000E-02  6.25000000E-02  1.87500000E-01
                       1.87500000E-01  6.25000000E-02  1.87500000E-01
                       3.12500000E-01  6.25000000E-02  1.87500000E-01
                       4.37500000E-01  6.25000000E-02  1.87500000E-01
                       1.87500000E-01  1.87500000E-01  1.87500000E-01
                       3.12500000E-01  1.87500000E-01  1.87500000E-01
                       4.37500000E-01  1.87500000E-01  1.87500000E-01
                       3.12500000E-01  3.12500000E-01  1.87500000E-01
                       4.37500000E-01  3.12500000E-01  1.87500000E-01
                       4.37500000E-01  4.37500000E-01  1.87500000E-01
                       6.25000000E-02  6.25000000E-02  3.12500000E-01
                       1.87500000E-01  6.25000000E-02  3.12500000E-01
                       3.12500000E-01  6.25000000E-02  3.12500000E-01
                       4.37500000E-01  6.25000000E-02  3.12500000E-01
                       1.87500000E-01  1.87500000E-01  3.12500000E-01
                       3.12500000E-01  1.87500000E-01  3.12500000E-01
                       4.37500000E-01  1.87500000E-01  3.12500000E-01
                       3.12500000E-01  3.12500000E-01  3.12500000E-01
                       4.37500000E-01  3.12500000E-01  3.12500000E-01
                       4.37500000E-01  4.37500000E-01  3.12500000E-01
                       6.25000000E-02  6.25000000E-02  4.37500000E-01
                       1.87500000E-01  6.25000000E-02  4.37500000E-01
                       3.12500000E-01  6.25000000E-02  4.37500000E-01
                       4.37500000E-01  6.25000000E-02  4.37500000E-01
                       1.87500000E-01  1.87500000E-01  4.37500000E-01
                       3.12500000E-01  1.87500000E-01  4.37500000E-01
                       4.37500000E-01  1.87500000E-01  4.37500000E-01
                       3.12500000E-01  3.12500000E-01  4.37500000E-01
                       4.37500000E-01  3.12500000E-01  4.37500000E-01
                       4.37500000E-01  4.37500000E-01  4.37500000E-01
         kptrlatt        8    0    0      0    8    0      0    0    8
          kptrlen      5.89594553E+01
P           mkmem           5
           natfix           1
            natom           5
            nband          13
           ndtset           1
            ngfft          32      32      32
             nkpt          40
            npfft           4
-           npkpt           8
            nstep         150
             nsym           8
            ntime          25
           ntypat           3
              occ      2.000000  2.000000  2.000000  2.000000  2.000000  2.000000
                       2.000000  2.000000  2.000000  2.000000  2.000000  2.000000
                       0.000000
           ortalg          -2
        paral_kgb           1
           prteig           0
        restartxf          -1
           shiftk      5.00000000E-01  5.00000000E-01  5.00000000E-01
          spgroup          99
           symrel      1  0  0   0  1  0   0  0  1       1  0  0   0 -1  0   0  0  1
                      -1  0  0   0 -1  0   0  0  1      -1  0  0   0  1  0   0  0  1
                       0  1  0   1  0  0   0  0  1       0  1  0  -1  0  0   0  0  1
                       0 -1  0  -1  0  0   0  0  1       0 -1  0   1  0  0   0  0  1
           toldfe      1.00000000E-06 Hartree
           tolmxf      1.00000000E-05
            typat      1  2  3  3  3
         wfoptalg          14
              wtk        0.01563    0.03125    0.03125    0.03125    0.01563    0.03125
                         0.03125    0.01563    0.03125    0.01563    0.01563    0.03125
                         0.03125    0.03125    0.01563    0.03125    0.03125    0.01563
                         0.03125    0.01563    0.01563    0.03125    0.03125    0.03125
                         0.01563    0.03125    0.03125    0.01563    0.03125    0.01563
                         0.01563    0.03125    0.03125    0.03125    0.01563    0.03125
                         0.03125    0.01563    0.03125    0.01563
           xangst      0.0000000000E+00  0.0000000000E+00  0.0000000000E+00
                       1.9500000000E+00  1.9500000000E+00  1.9695000000E+00
                       0.0000000000E+00  1.9500000000E+00  1.9500000000E+00
                       1.9500000000E+00  0.0000000000E+00  1.9500000000E+00
                       1.9500000000E+00  1.9500000000E+00  0.0000000000E+00
            xcart      0.0000000000E+00  0.0000000000E+00  0.0000000000E+00
                       3.6849659591E+00  3.6849659591E+00  3.7218156187E+00
                       0.0000000000E+00  3.6849659591E+00  3.6849659591E+00
                       3.6849659591E+00  0.0000000000E+00  3.6849659591E+00
                       3.6849659591E+00  3.6849659591E+00  0.0000000000E+00
             xred      0.0000000000E+00  0.0000000000E+00  0.0000000000E+00
                       5.0000000000E-01  5.0000000000E-01  5.0500000000E-01
                       0.0000000000E+00  5.0000000000E-01  5.0000000000E-01
                       5.0000000000E-01  0.0000000000E+00  5.0000000000E-01
                       5.0000000000E-01  5.0000000000E-01  0.0000000000E+00
            znucl       38.00000   22.00000    8.00000

 chkinp: Checking input parameters for consistency, jdtset=   1.

== DATASET  1 ==================================================================
-   nproc =   32

 Real(R)+Recip(G) space primitive vectors, cartesian coordinates (Bohr,Bohr^-1):
 R(1)=  7.3699319  0.0000000  0.0000000  G(1)=  0.1356865  0.0000000  0.0000000
 R(2)=  0.0000000  7.3699319  0.0000000  G(2)=  0.0000000  0.1356865  0.0000000
 R(3)=  0.0000000  0.0000000  7.3699319  G(3)=  0.0000000  0.0000000  0.1356865
 Unit cell volume ucvol=  4.0030446E+02 bohr^3
 Angles (23,13,12)=  9.00000000E+01  9.00000000E+01  9.00000000E+01 degrees

 getcut: wavevector=  0.0000  0.0000  0.0000  ngfft=  32  32  32
         ecut(hartree)=     14.700   => boxcut(ratio)=   2.51575

 getcut : COMMENT -
  Note that boxcut > 2.2 ; recall that boxcut=Gcut(box)/Gcut(sphere) = 2
  is sufficient for exact treatment of convolution.
  Such a large boxcut is a waste : you could raise ecut
  e.g. ecut=   23.258557 Hartrees makes boxcut=2

--- Pseudopotential description ------------------------------------------------
- pspini: atom type   1  psp file is ../psps/38sr_LDA_FHI.fhi
- pspatm: opening atomic psp file    ../psps/38sr_LDA_FHI.fhi
- strontium, fhi98PP : Trouiller-Martins-type, LDA Ceperley/Alder Perdew/Wang (1992), l= 0 local
- 38.00000   2.00000     11001                znucl, zion, pspdat
    6    7    3    0       537   0.00000      pspcod,pspxc,lmax,lloc,mmax,r2well
    7.56200000000000    1.00000000000000    0.00000000000000   rchrg,fchrg,qchrg
  1.024700          amesh (Hamman grid)
 pspatm: epsatm=   93.08613442
         --- l  ekb(1:nproj) -->
             1   23.261112
             2   -2.794329
             3   -1.070229
 pspatm: atomic psp has been read  and splines computed

- pspini: atom type   2  psp file is ../psps/22ti_LDA_FHI.fhi
- pspatm: opening atomic psp file    ../psps/22ti_LDA_FHI.fhi
- titanium, fhi98PP : Trouiller-Martins-type, LDA Ceperley/Alder Perdew/Wang (1992), l= 1 local
- 22.00000   4.00000     21003                znucl, zion, pspdat
    6    7    3    1       515   0.00000      pspcod,pspxc,lmax,lloc,mmax,r2well
    0.00000000000000    0.00000000000000    0.00000000000000   rchrg,fchrg,qchrg
  1.024700          amesh (Hamman grid)
 pspatm: epsatm=   58.87618897
         --- l  ekb(1:nproj) -->
             0   -0.518582
             2   -5.296591
             3   -1.216009
 pspatm: atomic psp has been read  and splines computed

- pspini: atom type   3  psp file is ../psps/8o_LDA_FHI.fhi
- pspatm: opening atomic psp file    ../psps/8o_LDA_FHI.fhi
- oxygen, fhi98PP : Trouiller-Martins-type, LDA Ceperley/Alder Perdew/Wang (1992), l= 2 local
-  8.00000   6.00000     21003                znucl, zion, pspdat
    6    7    3    2       473   0.00000      pspcod,pspxc,lmax,lloc,mmax,r2well
    0.00000000000000    0.00000000000000    0.00000000000000   rchrg,fchrg,qchrg
  1.024700          amesh (Hamman grid)
 pspatm: epsatm=    3.67996594
         --- l  ekb(1:nproj) -->
             0    2.914750
             1   -2.952330
             3   -3.448613
 pspatm: atomic psp has been read  and splines computed

   3.91205331E+03                                ecore*ucvol(ha*bohr**3)

[...]
  -0.31947  -0.31228  -0.25173  -0.24959  -0.06132
 kpt#  17, nband= 13, wtk=  0.03125, kpt=  0.4375  0.1875  0.1875 (reduced coord)
  -0.98959  -0.98290  -0.94741  -0.42505  -0.39895  -0.38679  -0.34673  -0.32784
  -0.31938  -0.31414  -0.25393  -0.25259  -0.04406
 kpt#  18, nband= 13, wtk=  0.01563, kpt=  0.3125  0.3125  0.1875 (reduced coord)
  -0.99025  -0.98096  -0.94770  -0.41960  -0.40284  -0.40250  -0.34116  -0.32949
  -0.31885  -0.30058  -0.25406  -0.25329  -0.04673
 kpt#  19, nband= 13, wtk=  0.03125, kpt=  0.4375  0.3125  0.1875 (reduced coord)
  -0.98638  -0.98251  -0.94831  -0.42690  -0.41526  -0.40432  -0.34190  -0.33320
  -0.31639  -0.29357  -0.25601  -0.25476  -0.02936
 kpt#  20, nband= 13, wtk=  0.01563, kpt=  0.4375  0.4375  0.1875 (reduced coord)
  -0.98378  -0.98243  -0.94909  -0.43181  -0.42373  -0.41226  -0.33866  -0.33614
  -0.31423  -0.28189  -0.25815  -0.25588  -0.01427
 kpt#  21, nband= 13, wtk=  0.01563, kpt=  0.0625  0.0625  0.3125 (reduced coord)
  -0.94753  -0.91798  -0.91340  -0.36664  -0.36509  -0.34171  -0.31171  -0.30672
  -0.29252  -0.28329  -0.27363  -0.25510  -0.11857
 kpt#  22, nband= 13, wtk=  0.03125, kpt=  0.1875  0.0625  0.3125 (reduced coord)
  -0.94460  -0.91906  -0.91322  -0.37700  -0.36403  -0.34312  -0.33097  -0.31400
  -0.30740  -0.29173  -0.26625  -0.24540  -0.10047
 kpt#  23, nband= 13, wtk=  0.03125, kpt=  0.3125  0.0625  0.3125 (reduced coord)
  -0.93963  -0.92110  -0.91302  -0.39249  -0.36071  -0.35212  -0.33843  -0.32945
  -0.31176  -0.30071  -0.26278  -0.23461  -0.07498
 kpt#  24, nband= 13, wtk=  0.03125, kpt=  0.4375  0.0625  0.3125 (reduced coord)
  -0.93480  -0.92398  -0.91291  -0.40555  -0.36426  -0.35237  -0.34333  -0.34047
  -0.31314  -0.30699  -0.26164  -0.23169  -0.05680
 kpt#  25, nband= 13, wtk=  0.01563, kpt=  0.1875  0.1875  0.3125 (reduced coord)
  -0.94181  -0.91967  -0.91327  -0.38000  -0.36797  -0.34304  -0.33501  -0.33116
  -0.32436  -0.28951  -0.25565  -0.24079  -0.08817
 kpt#  26, nband= 13, wtk=  0.03125, kpt=  0.3125  0.1875  0.3125 (reduced coord)
  -0.93869  -0.92314  -0.91396  -0.39499  -0.37244  -0.35445  -0.34988  -0.33885
  -0.32563  -0.28770  -0.25125  -0.23632  -0.06723
 kpt#  27, nband= 13, wtk=  0.03125, kpt=  0.4375  0.1875  0.3125 (reduced coord)
  -0.93405  -0.92562  -0.91402  -0.40703  -0.37494  -0.36322  -0.35693  -0.33964
  -0.32410  -0.28617  -0.25099  -0.23134  -0.04896
 kpt#  28, nband= 13, wtk=  0.01563, kpt=  0.3125  0.3125  0.3125 (reduced coord)
  -0.93452  -0.92392  -0.91447  -0.39778  -0.38481  -0.37688  -0.34896  -0.33955
  -0.33459  -0.27234  -0.24204  -0.23349  -0.05088
 kpt#  29, nband= 13, wtk=  0.03125, kpt=  0.4375  0.3125  0.3125 (reduced coord)
  -0.93040  -0.92553  -0.91494  -0.40801  -0.38995  -0.38742  -0.35229  -0.34291
  -0.33383  -0.26456  -0.24051  -0.23146  -0.03604
 kpt#  30, nband= 13, wtk=  0.01563, kpt=  0.4375  0.4375  0.3125 (reduced coord)
  -0.92715  -0.92571  -0.91599  -0.41342  -0.39805  -0.39783  -0.34910  -0.34815
  -0.33421  -0.25220  -0.23369  -0.23296  -0.02393
 kpt#  31, nband= 13, wtk=  0.01563, kpt=  0.0625  0.0625  0.4375 (reduced coord)
  -0.94447  -0.91975  -0.91812  -0.36528  -0.36494  -0.35398  -0.32362  -0.31682
  -0.29192  -0.28717  -0.28637  -0.26271  -0.11453
 kpt#  32, nband= 13, wtk=  0.03125, kpt=  0.1875  0.0625  0.4375 (reduced coord)
  -0.94185  -0.91941  -0.91901  -0.37610  -0.36246  -0.35447  -0.34525  -0.32138
  -0.30973  -0.29686  -0.27661  -0.24717  -0.09709
 kpt#  33, nband= 13, wtk=  0.03125, kpt=  0.3125  0.0625  0.4375 (reduced coord)
  -0.93731  -0.92106  -0.91878  -0.39330  -0.36416  -0.35830  -0.35279  -0.32849
  -0.31985  -0.30479  -0.26773  -0.23048  -0.07311
 kpt#  34, nband= 13, wtk=  0.03125, kpt=  0.4375  0.0625  0.4375 (reduced coord)
  -0.93296  -0.92364  -0.91833  -0.40494  -0.37242  -0.35312  -0.35120  -0.33837
  -0.32329  -0.30896  -0.26225  -0.22068  -0.05362
 kpt#  35, nband= 13, wtk=  0.01563, kpt=  0.1875  0.1875  0.4375 (reduced coord)
  -0.93928  -0.91978  -0.91913  -0.37894  -0.36879  -0.35411  -0.34832  -0.33555
  -0.33243  -0.29191  -0.26009  -0.24040  -0.08493
 kpt#  36, nband= 13, wtk=  0.03125, kpt=  0.3125  0.1875  0.4375 (reduced coord)
  -0.94668  -0.93335  -0.91354  -0.39810  -0.37514  -0.36002  -0.35568  -0.34981
  -0.33484  -0.29357  -0.25009  -0.22887  -0.06543
 kpt#  37, nband= 13, wtk=  0.03125, kpt=  0.4375  0.1875  0.4375 (reduced coord)
  -0.94252  -0.93562  -0.91332  -0.41010  -0.37471  -0.36619  -0.36465  -0.35077
  -0.33377  -0.29073  -0.24705  -0.22001  -0.04760
 kpt#  38, nband= 13, wtk=  0.01563, kpt=  0.3125  0.3125  0.4375 (reduced coord)
  -0.94313  -0.93418  -0.91359  -0.40183  -0.38888  -0.37759  -0.35822  -0.34879
  -0.34696  -0.27888  -0.23522  -0.22514  -0.05034
 kpt#  39, nband= 13, wtk=  0.03125, kpt=  0.4375  0.3125  0.4375 (reduced coord)
  -0.93962  -0.93575  -0.91364  -0.41214  -0.39109  -0.38799  -0.35994  -0.35115
  -0.34689  -0.26994  -0.23067  -0.21963  -0.03574
 kpt#  40, nband= 13, wtk=  0.01563, kpt=  0.4375  0.4375  0.4375 (reduced coord)
  -0.93722  -0.93609  -0.91390  -0.41754  -0.40266  -0.39678  -0.35609  -0.35398
  -0.35102  -0.25897  -0.22237  -0.22041  -0.02452
 Total charge density [el/Bohr^3]
,     Maximum=    7.3419E-01  at reduced coord.    0.4688    0.5625    0.2188
,Next maximum=    7.3419E-01  at reduced coord.    0.5313    0.5625    0.2188
,     Minimum=    2.2580E-05  at reduced coord.    0.0000    0.0000    0.0000
,Next minimum=    5.9667E-05  at reduced coord.    0.0000    0.0000    0.2188
,  Integrated=    2.4000E+01

 Components of total free energy (in Hartree) :

    Kinetic energy  =  3.88194561756144E+01
    Hartree energy  =  1.58734624719147E+01
    XC energy       = -1.24891993770852E+01
    Ewald energy    = -3.58146226110416E+01
    PspCore energy  =  9.77269480650150E+00
    Loc. psp. energy= -2.57946817552351E+01
    NL   psp  energy= -4.75418251300031E+00
    >>>>>>>>> Etotal= -1.43870728023316E+01

 Other information on the energy :
    Total energy(eV)= -3.91492160646012E+02 ; Band energy (Ha)=  -1.3663291447E+01
 rms coord change=  1.5764E-01   atom, delta coord (reduced):
     1        0.000000000000      0.000000000000      0.000000000000
     2        0.000000000000      0.000000000000      0.489095555959
     3        0.000000000000      0.000000000000      0.176090691530
     4        0.000000000000      0.000000000000      0.176090691530
     5        0.000000000000      0.000000000000      0.267438626016

 Cartesian components of stress tensor (hartree/bohr^3)
  sigma(1 1)= -3.43135529E-02  sigma(3 2)=  0.00000000E+00
  sigma(2 2)= -3.43135529E-02  sigma(3 1)=  0.00000000E+00
  sigma(3 3)= -8.81346736E-04  sigma(2 1)=  0.00000000E+00

-Cartesian components of stress tensor (GPa)         [Pressure=  6.8167E+02 GPa]
- sigma(1 1)= -1.00953941E+03  sigma(3 2)=  0.00000000E+00
- sigma(2 2)= -1.00953941E+03  sigma(3 1)=  0.00000000E+00
- sigma(3 3)= -2.59301118E+01  sigma(2 1)=  0.00000000E+00

== END DATASET(S) ==============================================================

 -outvars: echo values of variables after computation  --------
        accesswff           1
            acell      7.3699319183E+00  7.3699319183E+00  7.3699319183E+00 Bohr
              amu      8.76200000E+01  4.78800000E+01  1.59994000E+01
           diemac      5.00000000E+00
             ecut      1.46997302E+01 Hartree
           etotal1    -1.4387072802E+01
            fcart1     0.0000000000E+00  0.0000000000E+00  4.6808168198E+00
                       0.0000000000E+00  0.0000000000E+00  6.7393545411E-01
                       0.0000000000E+00  0.0000000000E+00 -5.3679295023E+00
                       0.0000000000E+00  0.0000000000E+00 -5.3679295023E+00
                       0.0000000000E+00  0.0000000000E+00  5.3811067308E+00
           fftalg         401
      fft_opt_lob           2
           iatfix        1
           ionmov           2
           iprcch           6
              ixc           7
           jdtset        1
              kpt      6.25000000E-02  6.25000000E-02  6.25000000E-02
                       1.87500000E-01  6.25000000E-02  6.25000000E-02
                       3.12500000E-01  6.25000000E-02  6.25000000E-02
                       4.37500000E-01  6.25000000E-02  6.25000000E-02
                       1.87500000E-01  1.87500000E-01  6.25000000E-02
                       3.12500000E-01  1.87500000E-01  6.25000000E-02
                       4.37500000E-01  1.87500000E-01  6.25000000E-02
                       3.12500000E-01  3.12500000E-01  6.25000000E-02
                       4.37500000E-01  3.12500000E-01  6.25000000E-02
                       4.37500000E-01  4.37500000E-01  6.25000000E-02
                       6.25000000E-02  6.25000000E-02  1.87500000E-01
                       1.87500000E-01  6.25000000E-02  1.87500000E-01
                       3.12500000E-01  6.25000000E-02  1.87500000E-01
                       4.37500000E-01  6.25000000E-02  1.87500000E-01
                       1.87500000E-01  1.87500000E-01  1.87500000E-01
                       3.12500000E-01  1.87500000E-01  1.87500000E-01
                       4.37500000E-01  1.87500000E-01  1.87500000E-01
                       3.12500000E-01  3.12500000E-01  1.87500000E-01
                       4.37500000E-01  3.12500000E-01  1.87500000E-01
                       4.37500000E-01  4.37500000E-01  1.87500000E-01
                       6.25000000E-02  6.25000000E-02  3.12500000E-01
                       1.87500000E-01  6.25000000E-02  3.12500000E-01
                       3.12500000E-01  6.25000000E-02  3.12500000E-01
                       4.37500000E-01  6.25000000E-02  3.12500000E-01
                       1.87500000E-01  1.87500000E-01  3.12500000E-01
                       3.12500000E-01  1.87500000E-01  3.12500000E-01
                       4.37500000E-01  1.87500000E-01  3.12500000E-01
                       3.12500000E-01  3.12500000E-01  3.12500000E-01
                       4.37500000E-01  3.12500000E-01  3.12500000E-01
                       4.37500000E-01  4.37500000E-01  3.12500000E-01
                       6.25000000E-02  6.25000000E-02  4.37500000E-01
                       1.87500000E-01  6.25000000E-02  4.37500000E-01
                       3.12500000E-01  6.25000000E-02  4.37500000E-01
                       4.37500000E-01  6.25000000E-02  4.37500000E-01
                       1.87500000E-01  1.87500000E-01  4.37500000E-01
                       3.12500000E-01  1.87500000E-01  4.37500000E-01
                       4.37500000E-01  1.87500000E-01  4.37500000E-01
                       3.12500000E-01  3.12500000E-01  4.37500000E-01
                       4.37500000E-01  3.12500000E-01  4.37500000E-01
                       4.37500000E-01  4.37500000E-01  4.37500000E-01
         kptrlatt        8    0    0      0    8    0      0    0    8
          kptrlen      5.89594553E+01
P           mkmem           5
           natfix           1
            natom           5
            nband          13
           ndtset           1
            ngfft          32      32      32
             nkpt          40
            npfft           4
-           npkpt           8
            nstep         150
             nsym           8
            ntime          25
           ntypat           3
              occ      2.000000  2.000000  2.000000  2.000000  2.000000  2.000000
                       2.000000  2.000000  2.000000  2.000000  2.000000  2.000000
                       0.000000
           ortalg          -2
        paral_kgb           1
           prteig           0
        restartxf          -1
           shiftk      5.00000000E-01  5.00000000E-01  5.00000000E-01
          spgroup          99
           strten1    -3.4313552876E-02 -3.4313552876E-02 -8.8134673599E-04
                       0.0000000000E+00  0.0000000000E+00  0.0000000000E+00
           symrel      1  0  0   0  1  0   0  0  1       1  0  0   0 -1  0   0  0  1
                      -1  0  0   0 -1  0   0  0  1      -1  0  0   0  1  0   0  0  1
                       0  1  0   1  0  0   0  0  1       0  1  0  -1  0  0   0  0  1
                       0 -1  0  -1  0  0   0  0  1       0 -1  0   1  0  0   0  0  1
           toldfe      1.00000000E-06 Hartree
           tolmxf      1.00000000E-05
            typat      1  2  3  3  3
         wfoptalg          14
              wtk        0.01563    0.03125    0.03125    0.03125    0.01563    0.03125
                         0.03125    0.01563    0.03125    0.01563    0.01563    0.03125
                         0.03125    0.03125    0.01563    0.03125    0.03125    0.01563
                         0.03125    0.01563    0.01563    0.03125    0.03125    0.03125
                         0.01563    0.03125    0.03125    0.01563    0.03125    0.01563
                         0.01563    0.03125    0.03125    0.03125    0.01563    0.03125
                         0.03125    0.01563    0.03125    0.01563
           xangst      0.0000000000E+00  0.0000000000E+00  0.0000000000E+00
                       1.9500000000E+00  1.9500000000E+00  3.8769726682E+00
                       0.0000000000E+00  1.9500000000E+00  2.6367536970E+00
                       1.9500000000E+00  0.0000000000E+00  2.6367536970E+00
                       1.9500000000E+00  1.9500000000E+00  1.0430106415E+00
            xcart      0.0000000000E+00  0.0000000000E+00  0.0000000000E+00
                       3.6849659591E+00  3.6849659591E+00  7.3264165677E+00
                       0.0000000000E+00  3.6849659591E+00  4.9827423671E+00
                       3.6849659591E+00  0.0000000000E+00  4.9827423671E+00
                       3.6849659591E+00  3.6849659591E+00  1.9710044660E+00
             xred      0.0000000000E+00  0.0000000000E+00  0.0000000000E+00
                       5.0000000000E-01  5.0000000000E-01  9.9409555596E-01
                       0.0000000000E+00  5.0000000000E-01  6.7609069153E-01
                       5.0000000000E-01  0.0000000000E+00  6.7609069153E-01
                       5.0000000000E-01  5.0000000000E-01  2.6743862602E-01
            znucl       38.00000   22.00000    8.00000

- Timing analysis has been suppressed with timopt=0

 Suggested references for the acknowledgment of ABINIT usage.

 [1] Large scale ab initio calculations based on three levels of parallelization
 F. Bottin, S. Leroux, A. Knyazev, G. Zerah, Comput. Mat. Science 42, 329, (2008).
 Comment : in case paral_kgb is non-zero. Strong suggestion to cite this paper in your publications.

 [2] Ab initio pseudopotentials for electronic structure calculations of poly-atomic systems,
 using density-functional theory.
 M. Fuchs, M. Scheffler, Comput. Phys. Commun. 119, 67 (1999).
 Comment : Some pseudopotential generated using the FHI code were used.

 [3] ABINIT : First-principles approach of materials and nanosystem properties.
 X. Gonze, B. Amadon, P.-M. Anglade, J.-M. Beuken, F. Bottin, P. Boulanger, F. Bruneval,
 D. Caliste, R. Caracas, M. Cote, T. Deutsch, L. Genovese, Ph. Ghosez, M. Giantomassi
 S. Goedecker, D.R. Hamann, P. Hermet, F. Jollet, G. Jomard, S. Leroux, M. Mancini, S. Mazevet,
 M.J.T. Oliveira, G. Onida, Y. Pouillon, T. Rangel, G.-M. Rignanese, D. Sangalli, R. Shaltaf,
 M. Torrent, M.J. Verstraete, G. Zerah, J.W. Zwanziger
 Computer Phys. Comm. 180, 2582-2615 (2009).
 Comment : the third generic paper describing the ABINIT project.
 Note that a version of this paper, that is not formatted for Computer Phys. Comm.
 The licence allows the authors to put it on the Web.

 [4] A brief introduction to the ABINIT software package.
 X. Gonze, G.-M. Rignanese, M. Verstraete, J.-M. Beuken, Y. Pouillon, R. Caracas, F. Jollet,
 M. Torrent, G. Zerah, M. Mikami, Ph. Ghosez, M. Veithen, J.-Y. Raty, V. Olevano, F. Bruneval,
 L. Reining, R. Godby, G. Onida, D.R. Hamann, and D.C. Allan.
 Z. Kristallogr. 220, 558-562 (2005).
 Comment : the second generic paper describing the ABINIT project. Note that this paper
 should be cited especially if you are using the GW part of ABINIT, as several authors
 of this part are not in the list of authors of the first or third paper.
 Note that it should not redistributed (Copyright by Oldenburg Wissenshaftverlag,
 the licence allows the authors to put it on the Web).

 And optionally :

 [5] First-principles computation of material properties : the ABINIT software project.
 X. Gonze, J.-M. Beuken, R. Caracas, F. Detraux, M. Fuchs, G.-M. Rignanese, L. Sindic,
 M. Verstraete, G. Zerah, F. Jollet, M. Torrent, A. Roy, M. Mikami, Ph. Ghosez, J.-Y. Raty, D.C. Allan.
 Comment : the original paper describing the ABINIT project.
-

 Calculation completed.
.Delivered   13 WARNINGs and  55 COMMENTs to log file.